
(set-logic HORN)
(declare-fun zero_61 () Int)
(declare-fun succ_60 (Int) Int)
(declare-datatypes ((Bool_181 0)) (((false_181) (true_181))))
(declare-fun diseqBool_78 (Bool_181 Bool_181) Bool)
(declare-fun isfalse_78 (Bool_181) Bool)
(declare-fun istrue_78 (Bool_181) Bool)
(assert (isfalse_78 false_181))
(assert (istrue_78 true_181))
(assert (diseqBool_78 false_181 true_181))
(assert (diseqBool_78 true_181 false_181))
(declare-fun and_181 (Bool_181 Bool_181 Bool_181) Bool)
(declare-fun or_184 (Bool_181 Bool_181 Bool_181) Bool)
(declare-fun hence_181 (Bool_181 Bool_181 Bool_181) Bool)
(declare-fun not_183 (Bool_181 Bool_181) Bool)
(assert (and_181 false_181 false_181 false_181))
(assert (and_181 false_181 true_181 false_181))
(assert (and_181 false_181 false_181 true_181))
(assert (and_181 true_181 true_181 true_181))
(assert (or_184 false_181 false_181 false_181))
(assert (or_184 true_181 true_181 false_181))
(assert (or_184 true_181 false_181 true_181))
(assert (or_184 true_181 true_181 true_181))
(assert (hence_181 true_181 false_181 false_181))
(assert (hence_181 false_181 true_181 false_181))
(assert (hence_181 true_181 false_181 true_181))
(assert (hence_181 true_181 true_181 true_181))
(assert (not_183 true_181 false_181))
(assert (not_183 false_181 true_181))
(declare-fun diseqInt (Int Int) Bool)
(declare-fun p_170 (Int Int) Bool)
(declare-fun iszero_60 (Int) Bool)
(declare-fun issucc_60 (Int) Bool)
(assert (forall ((x_27104 Int))
	(p_170 x_27104 (succ_60 x_27104))))
(assert (iszero_60 zero_61))
(assert (forall ((x_27106 Int))
	(issucc_60 (succ_60 x_27106))))
(assert (forall ((x_27107 Int))
	(diseqInt zero_61 (succ_60 x_27107))))
(assert (forall ((x_27108 Int))
	(diseqInt (succ_60 x_27108) zero_61)))
(assert (forall ((x_27109 Int) (x_27110 Int))
	(=> (diseqInt x_27109 x_27110) (diseqInt (succ_60 x_27109) (succ_60 x_27110)))))
(declare-fun leq_22 (Bool_181 Int Int) Bool)
(assert (forall ((x_26936 Bool_181) (x_26933 Int) (z_1033 Int))
	(=> (leq_22 x_26936 z_1033 x_26933) (leq_22 x_26936 (succ_60 z_1033) (succ_60 x_26933)))))
(assert (forall ((z_1033 Int))
	(leq_22 false_181 (succ_60 z_1033) zero_61)))
(assert (forall ((y_1080 Int))
	(leq_22 true_181 zero_61 y_1080)))
(assert (forall ((y_1083 Int) (x_26935 Int) (x_26934 Int))
	(=> (and true (diseqInt x_26935 x_26935) (leq_22 true_181 x_26935 y_1083) (leq_22 true_181 x_26934 x_26935) (leq_22 true_181 x_26934 y_1083) (leq_22 true_181 x_26934 x_26935) (leq_22 true_181 x_26935 y_1083)) false)))
(assert (forall ((y_1083 Int) (x_26935 Int) (x_26934 Int))
	(=> (and true (diseqInt x_26934 x_26935) (leq_22 true_181 x_26935 y_1083) (leq_22 false_181 x_26934 x_26935) (leq_22 true_181 x_26934 y_1083) (leq_22 true_181 x_26934 x_26935) (leq_22 true_181 x_26935 y_1083)) false)))
(assert (forall ((y_1083 Int) (x_26935 Int) (x_26934 Int))
	(=> (and true (diseqInt x_26935 y_1083) (leq_22 false_181 x_26935 y_1083) (leq_22 true_181 x_26934 x_26935) (leq_22 true_181 x_26934 y_1083) (leq_22 true_181 x_26934 x_26935) (leq_22 true_181 x_26935 y_1083)) false)))
(assert (forall ((y_1083 Int) (x_26935 Int) (x_26934 Int))
	(=> (and true (diseqInt x_26934 y_1083) (leq_22 false_181 x_26935 y_1083) (leq_22 false_181 x_26934 x_26935) (leq_22 true_181 x_26934 y_1083) (leq_22 true_181 x_26934 x_26935) (leq_22 true_181 x_26935 y_1083)) false)))
(assert (forall ((x_26935 Int) (y_1082 Int) (x_26934 Int))
	(=> (and true (diseqInt y_1082 x_26935) (leq_22 true_181 x_26935 y_1082) (leq_22 true_181 x_26934 y_1082) (leq_22 true_181 x_26934 y_1082) (leq_22 true_181 x_26934 x_26935) (leq_22 false_181 x_26935 y_1082)) false)))
(assert (forall ((x_26935 Int) (y_1082 Int) (x_26934 Int))
	(=> (and true (diseqInt x_26934 x_26935) (leq_22 true_181 x_26935 y_1082) (leq_22 false_181 x_26934 y_1082) (leq_22 true_181 x_26934 y_1082) (leq_22 true_181 x_26934 x_26935) (leq_22 false_181 x_26935 y_1082)) false)))
(assert (forall ((x_26935 Int) (y_1082 Int) (x_26934 Int))
	(=> (and true (diseqInt y_1082 y_1082) (leq_22 false_181 x_26935 y_1082) (leq_22 true_181 x_26934 y_1082) (leq_22 true_181 x_26934 y_1082) (leq_22 true_181 x_26934 x_26935) (leq_22 false_181 x_26935 y_1082)) false)))
(assert (forall ((x_26935 Int) (y_1082 Int) (x_26934 Int))
	(=> (and true (diseqInt x_26934 y_1082) (leq_22 false_181 x_26935 y_1082) (leq_22 false_181 x_26934 y_1082) (leq_22 true_181 x_26934 y_1082) (leq_22 true_181 x_26934 x_26935) (leq_22 false_181 x_26935 y_1082)) false)))
(assert (forall ((y_1083 Int) (x_26934 Int) (y_1081 Int))
	(=> (and true (diseqInt y_1081 x_26934) (leq_22 true_181 x_26934 y_1083) (leq_22 true_181 x_26934 y_1081) (leq_22 true_181 x_26934 y_1083) (leq_22 false_181 x_26934 y_1081) (leq_22 true_181 y_1081 y_1083)) false)))
(assert (forall ((y_1083 Int) (x_26934 Int) (y_1081 Int))
	(=> (and true (diseqInt x_26934 x_26934) (leq_22 true_181 x_26934 y_1083) (leq_22 false_181 x_26934 y_1081) (leq_22 true_181 x_26934 y_1083) (leq_22 false_181 x_26934 y_1081) (leq_22 true_181 y_1081 y_1083)) false)))
(assert (forall ((y_1083 Int) (x_26934 Int) (y_1081 Int))
	(=> (and true (diseqInt y_1081 y_1083) (leq_22 false_181 x_26934 y_1083) (leq_22 true_181 x_26934 y_1081) (leq_22 true_181 x_26934 y_1083) (leq_22 false_181 x_26934 y_1081) (leq_22 true_181 y_1081 y_1083)) false)))
(assert (forall ((y_1083 Int) (x_26934 Int) (y_1081 Int))
	(=> (and true (diseqInt x_26934 y_1083) (leq_22 false_181 x_26934 y_1083) (leq_22 false_181 x_26934 y_1081) (leq_22 true_181 x_26934 y_1083) (leq_22 false_181 x_26934 y_1081) (leq_22 true_181 y_1081 y_1083)) false)))
(assert (forall ((y_1082 Int) (x_26934 Int) (y_1081 Int))
	(=> (and true (diseqInt y_1082 x_26934) (leq_22 true_181 x_26934 y_1082) (leq_22 true_181 x_26934 y_1082) (leq_22 true_181 x_26934 y_1082) (leq_22 false_181 x_26934 y_1081) (leq_22 false_181 y_1081 y_1082)) false)))
(assert (forall ((y_1082 Int) (x_26934 Int) (y_1081 Int))
	(=> (and true (diseqInt x_26934 x_26934) (leq_22 true_181 x_26934 y_1082) (leq_22 false_181 x_26934 y_1082) (leq_22 true_181 x_26934 y_1082) (leq_22 false_181 x_26934 y_1081) (leq_22 false_181 y_1081 y_1082)) false)))
(assert (forall ((y_1082 Int) (x_26934 Int) (y_1081 Int))
	(=> (and true (diseqInt y_1082 y_1082) (leq_22 false_181 x_26934 y_1082) (leq_22 true_181 x_26934 y_1082) (leq_22 true_181 x_26934 y_1082) (leq_22 false_181 x_26934 y_1081) (leq_22 false_181 y_1081 y_1082)) false)))
(assert (forall ((y_1082 Int) (x_26934 Int) (y_1081 Int))
	(=> (and true (diseqInt x_26934 y_1082) (leq_22 false_181 x_26934 y_1082) (leq_22 false_181 x_26934 y_1082) (leq_22 true_181 x_26934 y_1082) (leq_22 false_181 x_26934 y_1081) (leq_22 false_181 y_1081 y_1082)) false)))
(assert (forall ((x_26935 Int) (x_26934 Int) (z_1034 Int))
	(=> (and true (diseqInt x_26935 x_26935) (leq_22 true_181 x_26935 x_26934) (leq_22 true_181 x_26934 x_26935) (leq_22 false_181 x_26934 z_1034) (leq_22 true_181 x_26934 x_26935) (leq_22 true_181 x_26935 z_1034)) false)))
(assert (forall ((x_26935 Int) (x_26934 Int) (z_1034 Int))
	(=> (and true (diseqInt x_26934 x_26935) (leq_22 true_181 x_26935 x_26934) (leq_22 false_181 x_26934 x_26935) (leq_22 false_181 x_26934 z_1034) (leq_22 true_181 x_26934 x_26935) (leq_22 true_181 x_26935 z_1034)) false)))
(assert (forall ((x_26935 Int) (x_26934 Int) (z_1034 Int))
	(=> (and true (diseqInt x_26935 x_26934) (leq_22 false_181 x_26935 x_26934) (leq_22 true_181 x_26934 x_26935) (leq_22 false_181 x_26934 z_1034) (leq_22 true_181 x_26934 x_26935) (leq_22 true_181 x_26935 z_1034)) false)))
(assert (forall ((x_26935 Int) (x_26934 Int) (z_1034 Int))
	(=> (and true (diseqInt x_26934 x_26934) (leq_22 false_181 x_26935 x_26934) (leq_22 false_181 x_26934 x_26935) (leq_22 false_181 x_26934 z_1034) (leq_22 true_181 x_26934 x_26935) (leq_22 true_181 x_26935 z_1034)) false)))
(assert (forall ((x_26935 Int) (y_1082 Int) (x_26934 Int))
	(=> (and true (diseqInt y_1082 x_26935) (leq_22 true_181 x_26935 x_26934) (leq_22 true_181 x_26934 y_1082) (leq_22 false_181 x_26934 y_1082) (leq_22 true_181 x_26934 x_26935) (leq_22 false_181 x_26935 y_1082)) false)))
(assert (forall ((x_26935 Int) (y_1082 Int) (x_26934 Int))
	(=> (and true (diseqInt x_26934 x_26935) (leq_22 true_181 x_26935 x_26934) (leq_22 false_181 x_26934 y_1082) (leq_22 false_181 x_26934 y_1082) (leq_22 true_181 x_26934 x_26935) (leq_22 false_181 x_26935 y_1082)) false)))
(assert (forall ((x_26935 Int) (y_1082 Int) (x_26934 Int))
	(=> (and true (diseqInt y_1082 x_26934) (leq_22 false_181 x_26935 x_26934) (leq_22 true_181 x_26934 y_1082) (leq_22 false_181 x_26934 y_1082) (leq_22 true_181 x_26934 x_26935) (leq_22 false_181 x_26935 y_1082)) false)))
(assert (forall ((x_26935 Int) (y_1082 Int) (x_26934 Int))
	(=> (and true (diseqInt x_26934 x_26934) (leq_22 false_181 x_26935 x_26934) (leq_22 false_181 x_26934 y_1082) (leq_22 false_181 x_26934 y_1082) (leq_22 true_181 x_26934 x_26935) (leq_22 false_181 x_26935 y_1082)) false)))
(assert (forall ((x_26934 Int) (y_1081 Int) (z_1034 Int))
	(=> (and true (diseqInt y_1081 x_26934) (leq_22 true_181 x_26934 x_26934) (leq_22 true_181 x_26934 y_1081) (leq_22 false_181 x_26934 z_1034) (leq_22 false_181 x_26934 y_1081) (leq_22 true_181 y_1081 z_1034)) false)))
(assert (forall ((x_26934 Int) (y_1081 Int) (z_1034 Int))
	(=> (and true (diseqInt x_26934 x_26934) (leq_22 true_181 x_26934 x_26934) (leq_22 false_181 x_26934 y_1081) (leq_22 false_181 x_26934 z_1034) (leq_22 false_181 x_26934 y_1081) (leq_22 true_181 y_1081 z_1034)) false)))
(assert (forall ((x_26934 Int) (y_1081 Int) (z_1034 Int))
	(=> (and true (diseqInt y_1081 x_26934) (leq_22 false_181 x_26934 x_26934) (leq_22 true_181 x_26934 y_1081) (leq_22 false_181 x_26934 z_1034) (leq_22 false_181 x_26934 y_1081) (leq_22 true_181 y_1081 z_1034)) false)))
(assert (forall ((x_26934 Int) (y_1081 Int) (z_1034 Int))
	(=> (and true (diseqInt x_26934 x_26934) (leq_22 false_181 x_26934 x_26934) (leq_22 false_181 x_26934 y_1081) (leq_22 false_181 x_26934 z_1034) (leq_22 false_181 x_26934 y_1081) (leq_22 true_181 y_1081 z_1034)) false)))
(assert (forall ((y_1082 Int) (x_26934 Int) (y_1081 Int))
	(=> (and true (diseqInt y_1082 x_26934) (leq_22 true_181 x_26934 x_26934) (leq_22 true_181 x_26934 y_1082) (leq_22 false_181 x_26934 y_1082) (leq_22 false_181 x_26934 y_1081) (leq_22 false_181 y_1081 y_1082)) false)))
(assert (forall ((y_1082 Int) (x_26934 Int) (y_1081 Int))
	(=> (and true (diseqInt x_26934 x_26934) (leq_22 true_181 x_26934 x_26934) (leq_22 false_181 x_26934 y_1082) (leq_22 false_181 x_26934 y_1082) (leq_22 false_181 x_26934 y_1081) (leq_22 false_181 y_1081 y_1082)) false)))
(assert (forall ((y_1082 Int) (x_26934 Int) (y_1081 Int))
	(=> (and true (diseqInt y_1082 x_26934) (leq_22 false_181 x_26934 x_26934) (leq_22 true_181 x_26934 y_1082) (leq_22 false_181 x_26934 y_1082) (leq_22 false_181 x_26934 y_1081) (leq_22 false_181 y_1081 y_1082)) false)))
(assert (forall ((y_1082 Int) (x_26934 Int) (y_1081 Int))
	(=> (and true (diseqInt x_26934 x_26934) (leq_22 false_181 x_26934 x_26934) (leq_22 false_181 x_26934 y_1082) (leq_22 false_181 x_26934 y_1082) (leq_22 false_181 x_26934 y_1081) (leq_22 false_181 y_1081 y_1082)) false)))
(check-sat)
